94,98
56,48
72,72
97,98
50,57
83,77
46,36
64,68
56,49
66,62
62,70
39,35
86,94
97,89
88,93
40,31
33,29
57,52
26,18
11,4
76,81
34,28
50,44
29,36
98,93
68,62
87,88
47,48
32,33
60,50
64,62
10,2
42,41
79,72
41,41
39,44
30,37
76,74
87,85
78,78
84,92
19,9
45,42
58,59
13,7
78,79
53,57
40,35
99,106
90,92
39,41
16,24
58,67
50,52
28,36
68,62
74,68
98,91
43,43
17,14
53,56
20,21
32,35
30,21
53,47
43,52
36,32
98,89
20,24
72,67
31,29
95,97
16,11
39,46
83,81

306
313
1341
664
75
56
36
267
534
125
